20J7M/DAT/20J7MULL-6.dat
20 7
7.3342 7.3342
5.4444 5.4444
28.7614 28.7614
5.6135 5.6135
7.1618 7.1618
13.1708 13.1708
28.1155 28.1155
12.0254 12.0254
6.889 6.889
7.1093 7.1093
35.4751 35.4751
34.9062 34.9062
33.1568 33.1568
6.9069 6.9069
3.9831 3.9831
12.1071 12.1071
15.3032 15.3032
34.255 34.255
34.1309 34.1309
17.7651 17.7651
49.945