20J7M/SOL/20J7MULL-6.sol
solution status: optimal solution found
objective value:                     49.9449571428571
x#1#6                                               1 	(obj:0)
x#2#6                                               1 	(obj:0)
x#3#7                                               1 	(obj:0)
x#4#6                                               1 	(obj:0)
x#5#6                                               1 	(obj:0)
x#6#5                                               1 	(obj:0)
x#7#3                                               1 	(obj:0)
x#8#1                               0.710125472511755 	(obj:0)
x#8#6                               0.289874527488245 	(obj:0)
x#9#6                                               1 	(obj:0)
x#10#6                                              1 	(obj:0)
x#11#4                                              1 	(obj:0)
x#12#4                               0.41453544478795 	(obj:0)
x#12#5                               0.58546455521205 	(obj:0)
x#13#2                                              1 	(obj:0)
x#14#6                                              1 	(obj:0)
x#15#5                                              1 	(obj:0)
x#16#1                                              1 	(obj:0)
x#17#1                                              1 	(obj:0)
x#18#3                             0.0209233271472362 	(obj:0)
x#18#5                              0.360668932585441 	(obj:0)
x#18#7                              0.618407740267323 	(obj:0)
x#19#2                              0.381418932069516 	(obj:0)
x#19#3                              0.618581067930484 	(obj:0)
x#20#1                              0.787786969153807 	(obj:0)
x#20#2                              0.212213030846193 	(obj:0)
z                                    49.9449571428571 	(obj:1)
